12 40 3 10
18 18 6 10 9 16 16 5 8 4 10 5 12 14 16 11 14 7 13 9 2 13 17 18 13 2 1 8 15 19 4 9 17 17 1 8 15 8 1 12 
4.25 1.24 3.5 2.88 0.17 3.07 1.47 2.34 6.97 7.54 5.58 3.22 6.26 2.49 0.74 7.76 2.29 4.29 5.64 6.77 1.61 4.75 6.21 3.63 1.7 7.27 7.27 0.35 1.05 6.48 2 7.37 1.48 3.79 3.56 1.05 4.09 3.28 1 1.17 
6.87 6.83 1.7 6.22 3.39 6.45 1.54 1.02 7 6.66 1.15 0.07 7.06 1.14 6.92 7.73 3.2 4.36 7.54 2.23 4.48 7.79 2.93 7.66 3.85 4.91 7.44 4.63 7.63 4.27 5.15 5.04 5.79 3.76 3.19 5.31 2.79 3.88 7.43 7.3 
4.71 5.26 0.2 1.31 6.67 0.56 3.67 7.74 6.06 5.4 0.58 4.85 1.72 2.26 5.16 7.16 3.71 3 5.18 5.9 0.8 4.51 5.27 3.39 0.2 3.86 7.03 6.67 4.12 3.94 6.44 5.12 2.31 5.54 4.44 1.56 6.21 5.62 2.19 4.27 
4 4 4 4 4 4 4 4 4 4 4 4 4 4 4 4 4 4 4 4 4 4 4 4 4 4 4 4 4 4 4 4 4 4 4 4 4 4 4 4 
1.04 4.52 0.18 4.82 1.02 7.11 3.96 6.33 6.44 1.76 2.66 3.55 2.62 3.66 7.25 1.51 7.85 1.94 7.04 5.09 7.3 3.95 3.87 7.45 1.22 0.49 4.59 7.1 2.12 7.63 6.27 2.83 2.64 1.84 4.11 1.25 3.06 1.86 3.13 5.71 
0.21 5.93 0.08 1.25 6.91 4.5 2.04 1.64 7.17 0.28 0.5 3.23 6.68 2.93 6.59 4.9 1.12 2.17 7.55 4.9 6.24 3.98 5.78 5.8 7.4 5.2 1.65 3.71 7.95 2.37 2.92 2.46 7.78 6.09 5.83 0.25 4.96 0.94 2.05 3.46 
3.39 5.96 2.26 1.2 1.07 5.52 5.96 4.07 4.59 1.25 4.29 6.32 7.96 6.64 5.98 6.36 5.42 7.21 4.54 2.86 2.05 6.12 0.8 1.97 3.69 0.52 5.92 0.75 7.77 0.28 2.83 7.68 0.76 4.31 1.27 6.78 4.06 2.65 2.82 2.32 
5.75 2.39 7.6 4.39 2.16 3.54 2.46 4.86 3.32 6.37 0.1 7.13 6.99 4.73 2.82 4.96 6.01 6.68 6.9 1.59 2.57 3.19 5.7 0.74 6.65 0.63 2.39 2.41 6.21 2.67 1.84 2.66 7.59 3.35 4.67 4.61 6.74 1.86 0.3 0.7 
1.77 1.34 5.9 6.07 1.2 2.36 1.43 4.69 6.09 1.04 4.47 2.53 5.17 5.49 2.35 1.01 1.64 2.82 6.06 6.4 6.49 5.32 3.26 6.39 2.29 2.32 5.94 3.07 3.95 5.43 0.76 3.04 4.92 2.53 3.08 5.91 1.79 1.38 3.88 2.98 
5.91 7.52 3.47 3.91 2.61 1.32 0.31 0.3 2.65 6.56 3.52 2.15 2.59 7.8 1.13 2.28 2.04 7.42 1.63 4.89 1.36 6.06 3.37 7.44 3.9 1.04 6.64 5.11 4.33 3.85 2.31 1.78 4.93 0.28 2.65 0.73 0.27 7.48 4.29 2.97 
0.41 7.81 3.39 5.74 3.26 7.6 7.45 1.2 3.22 4.95 2.78 5.01 7.28 4.84 6.06 3.06 6.21 4.84 5.65 2.41 7.08 3.56 6.45 6.86 4.2 6.69 6.14 5.89 1.42 6.34 4.85 2.24 6.01 7.25 6.58 6.72 0.52 5.2 4.39 2.42 
6.29 2.79 4.3 6.87 1.49 7.64 7.16 6.83 5.74 6.03 1.66 1.14 7.49 5.98 1.52 1.77 5.72 6.85 0.16 5.07 0.35 2.17 3.05 2.58 7.9 1.26 1.65 6.35 0.79 2.03 7.99 1.88 1.79 2.92 6.6 5.28 1.78 7.04 0.47 3.02 
1 1 1 1 1 1 1 1 1 1 1 1 1 1 1 1 1 1 1 1 1 1 1 1 1 1 1 1 1 1 1 1 1 1 1 1 1 1 1 1 
1 1 1 1 1 1 1 1 1 1 1 1 1 1 1 1 1 1 1 1 1 1 1 1 1 1 1 1 1 1 1 1 1 1 1 1 1 1 1 1 
1 1 1 1 1 1 1 1 1 1 1 1 1 1 1 1 1 1 1 1 1 1 1 1 1 1 1 1 1 1 1 1 1 1 1 1 1 1 1 1 
1 1 1 1 1 1 1 1 1 1 1 1 1 1 1 1 1 1 1 1 1 1 1 1 1 1 1 1 1 1 1 1 1 1 1 1 1 1 1 1 
1 1 1 1 1 1 1 1 1 1 1 1 1 1 1 1 1 1 1 1 1 1 1 1 1 1 1 1 1 1 1 1 1 1 1 1 1 1 1 1 
1 1 1 1 1 1 1 1 1 1 1 1 1 1 1 1 1 1 1 1 1 1 1 1 1 1 1 1 1 1 1 1 1 1 1 1 1 1 1 1 
1 1 1 1 1 1 1 1 1 1 1 1 1 1 1 1 1 1 1 1 1 1 1 1 1 1 1 1 1 1 1 1 1 1 1 1 1 1 1 1 
1 1 1 1 1 1 1 1 1 1 1 1 1 1 1 1 1 1 1 1 1 1 1 1 1 1 1 1 1 1 1 1 1 1 1 1 1 1 1 1 
1 1 1 1 1 1 1 1 1 1 1 1 1 1 1 1 1 1 1 1 1 1 1 1 1 1 1 1 1 1 1 1 1 1 1 1 1 1 1 1 
1 1 1 1 1 1 1 1 1 1 1 1 1 1 1 1 1 1 1 1 1 1 1 1 1 1 1 1 1 1 1 1 1 1 1 1 1 1 1 1 
1 1 1 1 1 1 1 1 1 1 1 1 1 1 1 1 1 1 1 1 1 1 1 1 1 1 1 1 1 1 1 1 1 1 1 1 1 1 1 1 
1 1 1 1 1 1 1 1 1 1 1 1 1 1 1 1 1 1 1 1 1 1 1 1 1 1 1 1 1 1 1 1 1 1 1 1 1 1 1 1 
0.01 0.01 0.01 0.01 0.01 0.01 0.01 0.01 0.01 0.01 0.01 0.01 0.01 0.01 0.01 0.01 0.01 0.01 0.01 0.01 0.01 0.01 0.01 0.01 0.01 0.01 0.01 0.01 0.01 0.01 0.01 0.01 0.01 0.01 0.01 0.01 0.01 0.01 0.01 0.01 
0.02 0.02 0.02 0.02 0.02 0.02 0.02 0.02 0.02 0.02 0.02 0.02 0.02 0.02 0.02 0.02 0.02 0.02 0.02 0.02 0.02 0.02 0.02 0.02 0.02 0.02 0.02 0.02 0.02 0.02 0.02 0.02 0.02 0.02 0.02 0.02 0.02 0.02 0.02 0.02 
0.03 0.03 0.03 0.03 0.03 0.03 0.03 0.03 0.03 0.03 0.03 0.03 0.03 0.03 0.03 0.03 0.03 0.03 0.03 0.03 0.03 0.03 0.03 0.03 0.03 0.03 0.03 0.03 0.03 0.03 0.03 0.03 0.03 0.03 0.03 0.03 0.03 0.03 0.03 0.03 
0.04 0.04 0.04 0.04 0.04 0.04 0.04 0.04 0.04 0.04 0.04 0.04 0.04 0.04 0.04 0.04 0.04 0.04 0.04 0.04 0.04 0.04 0.04 0.04 0.04 0.04 0.04 0.04 0.04 0.04 0.04 0.04 0.04 0.04 0.04 0.04 0.04 0.04 0.04 0.04 
0.125 0.125 0.125 0.125 0.125 0.125 0.125 0.125 0.125 0.125 0.125 0.125 0.125 0.125 0.125 0.125 0.125 0.125 0.125 0.125 0.125 0.125 0.125 0.125 0.125 0.125 0.125 0.125 0.125 0.125 0.125 0.125 0.125 0.125 0.125 0.125 0.125 0.125 0.125 0.125 
0.25 0.25 0.25 0.25 0.25 0.25 0.25 0.25 0.25 0.25 0.25 0.25 0.25 0.25 0.25 0.25 0.25 0.25 0.25 0.25 0.25 0.25 0.25 0.25 0.25 0.25 0.25 0.25 0.25 0.25 0.25 0.25 0.25 0.25 0.25 0.25 0.25 0.25 0.25 0.25 
0.375 0.375 0.375 0.375 0.375 0.375 0.375 0.375 0.375 0.375 0.375 0.375 0.375 0.375 0.375 0.375 0.375 0.375 0.375 0.375 0.375 0.375 0.375 0.375 0.375 0.375 0.375 0.375 0.375 0.375 0.375 0.375 0.375 0.375 0.375 0.375 0.375 0.375 0.375 0.375 
0.5 0.5 0.5 0.5 0.5 0.5 0.5 0.5 0.5 0.5 0.5 0.5 0.5 0.5 0.5 0.5 0.5 0.5 0.5 0.5 0.5 0.5 0.5 0.5 0.5 0.5 0.5 0.5 0.5 0.5 0.5 0.5 0.5 0.5 0.5 0.5 0.5 0.5 0.5 0.5 
0.625 0.625 0.625 0.625 0.625 0.625 0.625 0.625 0.625 0.625 0.625 0.625 0.625 0.625 0.625 0.625 0.625 0.625 0.625 0.625 0.625 0.625 0.625 0.625 0.625 0.625 0.625 0.625 0.625 0.625 0.625 0.625 0.625 0.625 0.625 0.625 0.625 0.625 0.625 0.625 
0.75 0.75 0.75 0.75 0.75 0.75 0.75 0.75 0.75 0.75 0.75 0.75 0.75 0.75 0.75 0.75 0.75 0.75 0.75 0.75 0.75 0.75 0.75 0.75 0.75 0.75 0.75 0.75 0.75 0.75 0.75 0.75 0.75 0.75 0.75 0.75 0.75 0.75 0.75 0.75 
0.875 0.875 0.875 0.875 0.875 0.875 0.875 0.875 0.875 0.875 0.875 0.875 0.875 0.875 0.875 0.875 0.875 0.875 0.875 0.875 0.875 0.875 0.875 0.875 0.875 0.875 0.875 0.875 0.875 0.875 0.875 0.875 0.875 0.875 0.875 0.875 0.875 0.875 0.875 0.875 
1 1 1 1 1 1 1 1 1 1 1 1 1 1 1 1 1 1 1 1 1 1 1 1 1 1 1 1 1 1 1 1 1 1 1 1 1 1 1 1 
